12820
4 1 203 358 367 22 66 371 215 227 20 368 166 386 99 143 310 334 303 61 94 241 81 70 364 144 198 78 325 302 86 183 283 131 376 43 12 126 27 218 170 231 220 75 37 378 28 176 388 125 31 242 10 189 146 373 393 361 207 3 93 135 266 353 14 141 260 280 5 281 212 73 382 387 195 314 390 332 132 11 100 363 224 59 32 362 254 329 62 142 327 293 110 344 158 307 311 251 276 320 68 76 397 300 339 275 273 56 137 115 222 304 39 295 120 129 336 216 285 214 202 282 117 186 17 164 173 317 268 205 234 395 54 400 289 348 278 87 312 187 356 389 331 200 25 29 197 95 53 398 381 343 41 71 153 127 185 88 244 51 165 90 232 383 102 261 225 287 315 114 392 366 359 159 190 85 156 204 210 259 229 175 145 181 349 79 375 121 237 258 286 34 161 45 256 169 4 
